========================================================== 
File name: C:\DEGR\assets\definitions\MSRCPSP_Gen\500_10_512_10_C.def
Creation date: Sat May 06 09:15:29 CEST 2023
Website: http://imopse.ii.pwr.edu.pl/ 
Reference: 
Myszkowski P. B., Skowronski M. E., Olech L., Oslizlo K., 
Hybrid Ant Colony Optimization in solving Multi-Skill Resource-Constrained Project Scheduling Problem, 
Soft Computing, DOI: DOI 10.1007/s00500-014-1455-x 
========================================================== 
General characteristics: 
Tasks: 500
Resources: 10
Precedence relations: 512
Number of skill types: 10
========================================================== 
ResourceID 	 Salary 	 Skills 
1	 	 	31.4	 	 Q8: 0 	  Q5: 3 	  Q1: 3 	  Q4: 3 	  Q3: 0 	  Q7: 1 	  Q2: 0 	  Q6: 0 	 
2	 	 	36.3	 	 Q6: 1 	 
3	 	 	95.6	 	 Q2: 2 	  Q7: 3 	  Q8: 0 	  Q3: 1 	  Q5: 0 	 
4	 	 	86.9	 	 Q1: 2 	  Q6: 1 	  Q0: 2 	  Q7: 0 	  Q8: 0 	 
5	 	 	77.4	 	 Q2: 2 	  Q1: 0 	  Q8: 2 	  Q6: 0 	  Q4: 1 	  Q9: 2 	  Q3: 1 	 
6	 	 	41.7	 	 Q3: 3 	  Q2: 1 	  Q4: 0 	 
7	 	 	42.9	 	 Q1: 3 	  Q9: 3 	  Q8: 3 	  Q6: 3 	 
8	 	 	41.9	 	 Q5: 1 	  Q3: 1 	  Q2: 2 	  Q9: 2 	  Q8: 3 	 
9	 	 	32.5	 	 Q7: 3 	  Q0: 0 	  Q3: 2 	  Q4: 2 	  Q9: 0 	  Q5: 3 	  Q2: 3 	  Q8: 1 	  Q6: 1 	 
10	 	 	56.5	 	 Q7: 0 	 
========================================================== 
TaskID 	 Duration 	 Skill 	 Predecessor IDs 
1	16	Q4:	3
2	40	Q3:	2
3	34	Q9:	3
4	15	Q3:	3
5	28	Q9:	3
6	13	Q6:	3	2
7	33	Q4:	0
8	10	Q0:	0
9	28	Q3:	2
10	19	Q7:	3
11	33	Q5:	0
12	40	Q9:	0
13	24	Q8:	1
14	11	Q2:	1
15	21	Q3:	3
16	40	Q8:	0
17	18	Q4:	1
18	11	Q6:	0
19	29	Q2:	2
20	36	Q4:	1
21	17	Q6:	3
22	16	Q6:	1
23	12	Q4:	1
24	20	Q9:	2	10
25	14	Q5:	0
26	31	Q5:	3
27	28	Q3:	2
28	30	Q9:	3
29	10	Q8:	0
30	36	Q2:	2
31	35	Q4:	1
32	37	Q2:	0
33	16	Q0:	2
34	19	Q9:	2	31
35	22	Q2:	3
36	37	Q5:	1
37	17	Q9:	3
38	40	Q6:	3
39	20	Q7:	1
40	38	Q5:	1
41	36	Q6:	0
42	23	Q8:	3
43	21	Q1:	0
44	32	Q0:	0
45	29	Q8:	1
46	21	Q8:	2
47	29	Q3:	0
48	10	Q2:	1
49	19	Q4:	3
50	23	Q3:	3
51	34	Q6:	0
52	24	Q8:	2
53	35	Q4:	2
54	13	Q6:	1
55	12	Q4:	3
56	35	Q2:	3
57	16	Q8:	0
58	29	Q5:	1
59	9	Q4:	1
60	34	Q2:	3	12
61	22	Q8:	0
62	25	Q9:	3	20
63	24	Q9:	0	38
64	36	Q4:	2
65	17	Q2:	1	26
66	40	Q1:	0
67	19	Q1:	2	22
68	15	Q9:	2
69	17	Q3:	0
70	21	Q2:	2
71	28	Q7:	0
72	30	Q7:	0
73	25	Q9:	2
74	37	Q4:	2
75	18	Q3:	2
76	19	Q3:	1	54
77	13	Q2:	3
78	38	Q6:	1	21
79	30	Q8:	3
80	33	Q3:	0	4
81	34	Q7:	1
82	39	Q7:	3
83	17	Q6:	1
84	28	Q4:	0	52
85	11	Q7:	3
86	13	Q2:	0
87	40	Q8:	3
88	33	Q7:	3	5
89	10	Q6:	1
90	20	Q1:	2
91	27	Q3:	0
92	19	Q4:	3	38
93	21	Q9:	2
94	34	Q5:	0
95	31	Q2:	3	92
96	15	Q6:	1	68
97	35	Q4:	3
98	40	Q8:	0	33
99	9	Q8:	1	49	3
100	21	Q6:	0	8
101	28	Q3:	1	62
102	10	Q5:	0	86
103	21	Q1:	0
104	18	Q8:	3
105	9	Q0:	0
106	13	Q7:	3	36
107	31	Q5:	3
108	19	Q6:	3	97
109	15	Q8:	1
110	26	Q7:	1
111	34	Q2:	3	28
112	25	Q3:	3
113	34	Q0:	2
114	11	Q3:	2
115	15	Q7:	1	15
116	33	Q9:	0
117	37	Q1:	0	19	49
118	33	Q5:	3	12
119	15	Q4:	1	80
120	39	Q6:	1
121	23	Q6:	1	22
122	20	Q1:	2
123	26	Q9:	2	80
124	21	Q3:	3	8	34
125	23	Q1:	3
126	16	Q9:	2
127	40	Q2:	2	59
128	35	Q1:	0
129	32	Q6:	1	5
130	19	Q1:	2	109
131	32	Q7:	0
132	18	Q7:	1
133	40	Q0:	2
134	31	Q1:	2
135	23	Q1:	3
136	33	Q3:	1
137	15	Q4:	1
138	14	Q3:	2
139	26	Q6:	0
140	22	Q4:	3	68
141	26	Q1:	2
142	32	Q2:	0
143	11	Q1:	3
144	38	Q3:	3
145	34	Q2:	0
146	40	Q1:	3
147	37	Q8:	1	6
148	39	Q5:	3	114
149	27	Q3:	1	39
150	36	Q1:	2
151	35	Q0:	0
152	18	Q3:	3
153	26	Q8:	0
154	38	Q4:	0
155	20	Q8:	0
156	16	Q3:	0	143
157	13	Q7:	1	81
158	36	Q8:	0
159	25	Q2:	1	85
160	12	Q2:	2
161	39	Q8:	1	51	97
162	27	Q6:	0
163	35	Q0:	2
164	39	Q7:	1
165	10	Q5:	1	98	162
166	34	Q0:	2	24	34
167	20	Q9:	2
168	29	Q8:	0	110
169	30	Q3:	3	42	9	137
170	11	Q4:	3
171	12	Q4:	3	25
172	20	Q4:	1
173	10	Q6:	1	108	46
174	16	Q4:	2
175	33	Q4:	2	94	83
176	12	Q9:	3
177	31	Q8:	0	44
178	22	Q8:	3	108
179	11	Q3:	0
180	21	Q1:	3
181	25	Q6:	3
182	25	Q4:	3
183	26	Q9:	3
184	23	Q0:	0
185	24	Q8:	1
186	11	Q4:	1	102	158	163
187	32	Q2:	1
188	15	Q6:	1
189	40	Q3:	3	121
190	40	Q2:	1
191	33	Q4:	1
192	13	Q6:	3
193	30	Q4:	3	145
194	39	Q6:	1	137
195	13	Q4:	1	25	100
196	36	Q4:	1	20
197	35	Q1:	0	109
198	26	Q9:	3	11
199	34	Q4:	0	103
200	22	Q6:	1
201	31	Q1:	0	122
202	17	Q4:	1	51
203	14	Q3:	1	103
204	13	Q4:	1
205	35	Q3:	2
206	15	Q9:	2
207	40	Q0:	2	131
208	25	Q9:	0	187
209	15	Q2:	0	192
210	33	Q2:	1	178	190
211	25	Q0:	0	34
212	37	Q9:	2
213	20	Q7:	3	113
214	11	Q5:	1	41
215	9	Q4:	3
216	28	Q4:	0	202
217	12	Q0:	0	2
218	27	Q3:	1	95	119	13	14
219	25	Q0:	2	172
220	10	Q1:	0	92
221	25	Q9:	0	211	3
222	21	Q2:	0	57	173
223	19	Q3:	1	213
224	35	Q4:	2
225	36	Q6:	1	103
226	18	Q8:	2	180	5	161	192
227	26	Q2:	3
228	17	Q9:	0	68
229	23	Q3:	1	203	158
230	12	Q4:	1	159
231	36	Q5:	0	96
232	27	Q6:	0
233	9	Q4:	1	88	121
234	23	Q7:	3	75	141
235	10	Q1:	3	30	161	108
236	21	Q9:	0	167
237	24	Q8:	1
238	23	Q6:	3
239	35	Q1:	3
240	30	Q5:	3	117
241	13	Q5:	3	76
242	18	Q2:	1	141	73
243	32	Q2:	1	227	48
244	17	Q3:	3	158
245	12	Q2:	2	96
246	28	Q1:	3	215
247	23	Q4:	2
248	18	Q5:	0	40	52	247
249	12	Q8:	2
250	20	Q6:	0
251	14	Q9:	2	93
252	19	Q9:	3	27
253	33	Q8:	2	12	51
254	34	Q9:	2	66	10
255	11	Q2:	2
256	33	Q9:	0	17
257	35	Q4:	3	80
258	33	Q9:	2
259	39	Q4:	3	243
260	31	Q9:	0	83
261	10	Q2:	3
262	9	Q9:	2	54	29
263	35	Q7:	1	80	163
264	29	Q9:	3	203	159
265	13	Q2:	3	69
266	24	Q1:	3
267	16	Q3:	3
268	37	Q4:	3
269	28	Q6:	3
270	9	Q8:	3	229
271	27	Q9:	0	181	79	134
272	26	Q2:	2
273	24	Q5:	1	206	26
274	35	Q2:	0
275	12	Q1:	2	188
276	9	Q1:	2	106	81
277	11	Q2:	3	241
278	21	Q3:	3	73	152	197
279	24	Q3:	0
280	34	Q9:	3	122
281	21	Q1:	0
282	16	Q4:	3	265
283	20	Q4:	1
284	20	Q8:	2	125	182
285	33	Q8:	1	97	220
286	25	Q8:	3	226
287	29	Q4:	3	263
288	26	Q3:	1	285
289	11	Q7:	0
290	17	Q6:	0	6	66
291	26	Q4:	0	119	197
292	38	Q2:	2	233
293	37	Q4:	3	92	149	50	186
294	9	Q2:	3	181
295	12	Q2:	1
296	23	Q2:	1
297	33	Q1:	3	71
298	35	Q1:	3	41
299	10	Q2:	1	122	267
300	31	Q8:	1	136	65	193
301	22	Q5:	0	62
302	38	Q9:	2	159
303	18	Q2:	2	111	222
304	35	Q1:	2	250
305	15	Q5:	0
306	24	Q8:	0
307	13	Q6:	0	86
308	19	Q5:	1	231	212	143	72
309	13	Q5:	3	138
310	34	Q4:	0
311	13	Q8:	1	198	21	3
312	25	Q2:	1
313	29	Q5:	0	202
314	28	Q2:	3
315	35	Q2:	2
316	13	Q5:	3
317	25	Q4:	0	158	205
318	17	Q2:	1	304
319	37	Q9:	3
320	21	Q3:	2	125	33	311	242
321	28	Q3:	0	6
322	28	Q4:	3	245
323	9	Q2:	3	305
324	34	Q6:	1	190
325	37	Q1:	2	289	58	35
326	37	Q2:	3	125	143
327	24	Q1:	2
328	38	Q9:	3	158
329	25	Q5:	0	102	26	37
330	30	Q2:	1	61	217	97	303	118
331	29	Q3:	1	81
332	10	Q5:	1	295	264	90
333	37	Q4:	1	75	185	193
334	13	Q6:	1	178	36
335	24	Q4:	1
336	30	Q9:	2	77
337	26	Q3:	2	308	77
338	34	Q8:	0	154
339	40	Q8:	0	79
340	15	Q2:	1	143
341	21	Q7:	0	95	206
342	20	Q0:	0
343	16	Q6:	1	297	200
344	35	Q8:	1	234	218
345	14	Q8:	2	210	203
346	34	Q7:	3	333	233
347	21	Q0:	2	7
348	27	Q8:	0	199	187
349	39	Q4:	1	290
350	23	Q4:	0	243	22
351	38	Q5:	3
352	37	Q2:	1	289	49	56	38	277
353	13	Q9:	2
354	28	Q8:	1
355	23	Q5:	3	2
356	36	Q7:	1	334	322
357	17	Q3:	0
358	33	Q9:	0	80	321	59	327
359	22	Q9:	3	113	243
360	37	Q5:	3	329	332	164	330
361	38	Q8:	0	114
362	14	Q6:	3	251
363	14	Q7:	1
364	37	Q4:	3	134
365	37	Q9:	3	211
366	10	Q3:	0
367	10	Q3:	1	326
368	28	Q2:	0	346
369	31	Q3:	3	131	92
370	38	Q2:	1	242
371	18	Q8:	1	199	358
372	40	Q1:	2	228	312	183	128
373	38	Q0:	2	244	229
374	14	Q2:	3	64	108
375	37	Q9:	0	220
376	39	Q3:	1	280
377	9	Q7:	3	212
378	16	Q4:	3	12	97
379	24	Q3:	1	81
380	12	Q5:	3	177	143	149
381	26	Q7:	1	232
382	22	Q1:	3	172	174	316
383	14	Q1:	2	283	47	133
384	10	Q8:	0	380	355	287
385	39	Q3:	0	60	222	92
386	24	Q2:	3	140
387	11	Q4:	2	137	51
388	31	Q6:	0	24	85	50
389	23	Q1:	2	99
390	30	Q7:	3	192	197	295	13
391	39	Q3:	0	268
392	9	Q3:	3	292	271
393	26	Q6:	1	51
394	9	Q9:	0	315
395	21	Q1:	2	88	377
396	27	Q1:	2	376
397	35	Q9:	0	276	323
398	33	Q8:	2	280	107
399	34	Q9:	3	94
400	31	Q7:	1	6
401	22	Q1:	0	319
402	20	Q4:	3	400
403	14	Q1:	0	223	340	206	348
404	12	Q7:	3	350	162
405	34	Q8:	2
406	25	Q1:	2	265	383	220
407	22	Q2:	0	399	33	158
408	17	Q4:	1	300	197	314
409	16	Q6:	0	198	210	201	53
410	14	Q7:	0	152
411	27	Q3:	3	363	378
412	20	Q7:	1	54
413	33	Q8:	1
414	19	Q9:	3	341
415	34	Q0:	0	131
416	28	Q3:	0	210	176	272
417	28	Q2:	0	115	221
418	31	Q3:	0	173	311	89	395
419	23	Q7:	1	215
420	40	Q2:	1	227	282	109
421	17	Q1:	0
422	9	Q1:	3	189
423	23	Q0:	0	50	268	96	203
424	24	Q1:	2	271	107
425	28	Q6:	3	266
426	11	Q3:	1
427	17	Q0:	2	340	307
428	27	Q4:	0	184	421
429	13	Q1:	0	186
430	12	Q4:	0	63
431	30	Q3:	2	79
432	9	Q7:	1	369
433	13	Q6:	0	256
434	30	Q2:	0
435	26	Q6:	0	419
436	36	Q0:	2	143	284	174
437	24	Q0:	2	298
438	27	Q3:	3	325
439	22	Q5:	0	40
440	32	Q9:	0	42	361	140	67	315
441	25	Q1:	0
442	29	Q6:	1	146
443	12	Q3:	3	100
444	16	Q1:	0	96
445	37	Q4:	3
446	36	Q6:	1	254	119
447	18	Q3:	2	1	371	406	325
448	29	Q3:	0	425	276
449	14	Q5:	3	277	36
450	29	Q2:	2	427	237
451	40	Q1:	2	183	93	40
452	20	Q8:	1	428
453	23	Q9:	2	159	59
454	33	Q6:	0
455	40	Q1:	2	342
456	18	Q1:	3	448	435	229	208	43
457	26	Q6:	1	183	158	450	156	15	434
458	23	Q7:	3	440
459	40	Q0:	0	269	204	241	55
460	34	Q6:	1	72
461	28	Q2:	1	383	388	80	348	82
462	24	Q8:	1	203
463	32	Q4:	2	179
464	17	Q4:	0	461
465	16	Q6:	0	419
466	25	Q7:	3
467	31	Q4:	1	29
468	36	Q2:	0	4
469	19	Q7:	0	324	35
470	28	Q9:	3	159
471	9	Q4:	0	104	67
472	32	Q7:	1	443	43
473	11	Q5:	1	75
474	21	Q3:	1
475	30	Q4:	0
476	14	Q5:	0
477	20	Q0:	0	33	251	292	294	99	308
478	25	Q5:	0	460
479	23	Q5:	0	169	202	217	421
480	15	Q7:	0	67	178
481	30	Q1:	0	267	147	88	319	97
482	12	Q1:	3
483	25	Q2:	1	434
484	35	Q9:	3	66	438	80
485	15	Q0:	2	199	377
486	30	Q6:	3	62	116
487	29	Q2:	3	126	66	216
488	19	Q3:	2	399
489	10	Q7:	0	309
490	32	Q5:	1	245
491	18	Q3:	0	301	418
492	34	Q8:	0	36
493	20	Q1:	2	100	135
494	17	Q6:	1	89	444	280	458	8
495	39	Q0:	0	355
496	32	Q5:	0
497	25	Q4:	1
498	10	Q0:	2	23	155
499	40	Q1:	3	360
500	16	Q5:	3	113
========================================================== 